Route #1: 7 33 55 22 58 51
Route #2: 21 23 46 24
Route #3: 54 16 37 60 61
Route #4: 8 27 35 6 12
Route #5: 17 56 29 40 15 25
Route #6: 53 14 2 9 41 1 39 45 49
Route #7: 18 5 3 42 19 10 59
Route #8: 48 36 30 43 52
Route #9: 38 4 26 13 28 20
Route #10: 31 44 47 11 34 32 57 50 62
Cost 1319
Time 0.12801
